p cnf 357 4
-137 -240 -27 -311 -15 -268 -88 2 258 4 264 9 265 268 14 15 16 274 282 27 289 290 291 294 42 43 302 307 52 54 311 312 56 61 71 72 73 335 336 81 339 85 341 342 88 90 93 351 102 105 108 114 121 126 128 129 131 133 137 149 153 160 176 185 201 204 210 216 222 228 239 240 254 7.858193972915625 0
